120 150

46
58
56
41
58
40
53
52
46
54
55
47
48
55
57
50
43
45
45
60
60
49
42
48
60
56
52
48
48
48
42
55
43
52
59
48
59
43
52
50
48
48
56
52
43
42
55
45
56
51
50
43
41
52
50
53
47
50
48
59
46
45
52
55
45
53
52
43
48
60
55
49
47
43
60
46
42
56
44
58
48
50
44
41
46
53
51
45
58
59
45
55
50
47
56
41
53
46
45
52
56
42
45
53
59
44
52
59
48
52
56
56
45
49
47
43
52
57
42
41